N = 5;
Capacity = 4;
ItemsPerCustomer = [3, 6, 5, 8, 3];
maxItemsPerCustomer = 8;
binCapacity = 50;
SizesOfItems = [|
  40, 34, 33, 0, 0, 0, 0, 0
| 38, 38, 33, 14, 13, 11, 0, 0
| 34, 21, 18, 16, 10, 0, 0, 0
| 40, 39, 36, 35, 30, 20, 16, 13
| 40, 32, 25, 0, 0, 0, 0, 0
|];
Distance = [|
  0, 59, 57, 45, 26, 51
| 59, 0, 6, 103, 83, 21
| 57, 6, 0, 101, 80, 15
| 45, 103, 101, 0, 34, 96
| 26, 83, 80, 34, 0, 71
| 51, 21, 15, 96, 71, 0
|];
